Sat 19 May 19:16:07 CEST 2018
CPXPARAM_TimeLimit                               45
CPXPARAM_Threads                                 1
CPXPARAM_MIP_Strategy_CallbackReducedLP          0
Tried aggregator 7 times.
MIP Presolve eliminated 4587 rows and 4202 columns.
MIP Presolve modified 6504 coefficients.
Aggregator did 13021 substitutions.
Reduced MIP has 16194 rows, 11658 columns, and 36340 nonzeros.
Reduced MIP has 10877 binaries, 11 generals, 0 SOSs, and 1380 indicators.
Presolve time = 0.21 sec. (482.75 ticks)
Found incumbent of value 27.000000 after 0.30 sec. (570.65 ticks)
Probing time = 0.16 sec. (122.23 ticks)
Cover probing fixed 0 vars, tightened 184 bounds.
Tried aggregator 2 times.
MIP Presolve eliminated 561 rows and 191 columns.
MIP Presolve modified 5 coefficients.
Aggregator did 7468 substitutions.
Reduced MIP has 8165 rows, 3859 columns, and 20127 nonzeros.
Reduced MIP has 3108 binaries, 751 generals, 0 SOSs, and 1328 indicators.
Presolve time = 0.03 sec. (39.57 ticks)
Probing time = 0.10 sec. (101.74 ticks)
Tried aggregator 1 time.
Reduced MIP has 8165 rows, 3859 columns, and 20127 nonzeros.
Reduced MIP has 3108 binaries, 751 generals, 0 SOSs, and 1328 indicators.
Presolve time = 0.02 sec. (17.99 ticks)
Probing time = 0.00 sec. (5.29 ticks)
Clique table members: 73249.
MIP emphasis: balance optimality and feasibility.
MIP search method: dynamic search.
Parallel mode: none, using 1 thread.
Root relaxation solution time = 0.07 sec. (82.71 ticks)

        Nodes                                         Cuts/
   Node  Left     Objective  IInf  Best Integer    Best Bound    ItCnt     Gap

*     0+    0                           27.0000        4.0000            85.19%
      0     0        4.0000  1816       27.0000        4.0000     1536   85.19%
      0     0        4.0000  1742       27.0000 Cliques: 2141     1836   85.19%
      0     0        4.0000  1470       27.0000 Cliques: 2141     2081   85.19%
      0     0        4.0000  1230       27.0000 Cliques: 2141     2355   85.19%
      0     0        4.0000  1008       27.0000 Cliques: 2141     2626   85.19%
      0     0        4.0000   872       27.0000 Cliques: 2141     2794   85.19%
      0     0        4.0000   843       27.0000    Cuts: 2074     3339   85.19%
      0     0        4.0000   797       27.0000      Cuts: 22     3552   85.19%
      0     0        4.0000   800       27.0000     Cuts: 747     3691   85.19%
      0     0        4.0000    23       27.0000   Impl Bds: 2     4038   85.19%
*     0+    0                           23.0000        4.0000            82.61%
*     0+    0                           21.0000        4.0000            80.95%
      0     0        4.0000   524       21.0000    Cuts: 1726     4496   80.95%
      0     2        4.0000   486       21.0000        4.0000     4518   80.95%
Elapsed time = 20.35 sec. (22525.07 ticks, tree = 0.01 MB, solutions = 3)
      3     5        4.0000  1143       21.0000        4.0000     7753   80.95%
     10    12        4.0000   142       21.0000        4.0000     9264   80.95%
     18    20        4.0000   875       21.0000        4.0000    10284   80.95%
     25    27        8.0000   233       21.0000        4.0000    12983   80.95%
     40    42        6.0000   200       21.0000        4.0000    13724   80.95%
     76    78        4.0000   158       21.0000        4.0000    14432   80.95%
*    80+   77                           20.0000        4.0000            80.00%
     83    82        4.0000   898       20.0000        4.0000    14712   80.00%
     91    90       19.0000   216       20.0000        4.0000    16390   80.00%
    100    99        4.0000   693       20.0000        4.0000    17022   80.00%
*   140+  132                           19.0000        4.0000            78.95%
    177   171        4.0000   154       19.0000        4.0000    20420   78.95%
Elapsed time = 23.70 sec. (26284.17 ticks, tree = 0.98 MB, solutions = 5)
*   220+  204                           18.0000        4.0000            77.78%
    244   224        4.0000   150       18.0000        4.0000    23540   77.78%
    344   324        4.0000   268       18.0000        4.0000    27153   77.78%
*   370+  335                           17.0000        4.0000            76.47%
    421   375    infeasible             17.0000        4.0000    32886   76.47%
    471   403        4.0000   624       17.0000        4.0000    35909   76.47%
*   520+  434                           16.0000        4.0000            75.00%
    523   436       12.0000   154       16.0000        4.0000    40172   75.00%
    581   463    infeasible             16.0000        4.0000    45144   75.00%
    614   478        4.0000   195       16.0000        4.0000    52344   75.00%
    625   481        4.0000   605       16.0000        4.0000    57356   75.00%
    668   508    infeasible             16.0000        4.0000    62817   75.00%
    716   512        4.0000   233       16.0000        4.0000    68722   75.00%
Elapsed time = 31.51 sec. (36214.82 ticks, tree = 2.00 MB, solutions = 8)
    747   517        4.0000   205       16.0000        4.0000    75350   75.00%
    788   530        7.0000   127       16.0000        4.0000    81200   75.00%
    829   554        9.0000   109       16.0000        4.0000    87104   75.00%
    851   553       14.0000    69       16.0000        4.0000    92199   75.00%
    885   557    infeasible             16.0000        4.0000    99606   75.00%
    914   570        4.0000   228       16.0000        4.0000   105381   75.00%
    954   590        4.0948   418       16.0000        4.0000   114342   75.00%
    973   594       10.0000   151       16.0000        4.0000   119091   75.00%
   1027   600       10.0000   136       16.0000        4.0000   124777   75.00%
   1053   606    infeasible             16.0000        4.0000   130687   75.00%
Elapsed time = 39.55 sec. (46141.98 ticks, tree = 2.40 MB, solutions = 8)
   1079   616        7.0000   235       16.0000        4.0000   135582   75.00%
   1099   636        4.0213   483       16.0000        4.0000   140546   75.00%
   1137   642       11.0000   173       16.0000        4.0000   146959   75.00%
   1158   649        4.9058   373       16.0000        4.0000   152604   75.00%
   1214   653    infeasible             16.0000        4.0000   156833   75.00%
   1265   660        4.6798   274       16.0000        4.0000   162834   75.00%

Clique cuts applied:  1529
Implied bound cuts applied:  172

Root node processing (before b&c):
  Real time             =   20.29 sec. (22472.69 ticks)
Sequential b&c:
  Real time             =   24.72 sec. (30196.58 ticks)
                          ------------
Total (root+branch&cut) =   45.01 sec. (52669.27 ticks)
   | W
 L | 0 1 2 3  4 
---------------
 0 | 3 3 3 3  . 
 1 | 3 3 3 3  9 
 2 | 6 6 6 6  7 
 3 | 6 6 6 6  . 
 4 | 6 6 6 6  . 
 5 | 6 6 6 6  . 
 6 | 5 5 . .  . 
 7 | 5 5 . .  . 
 8 | 5 5 4 4 10 
 9 | 5 5 4 4  . 
10 | 1 1 4 4  8 
11 | 1 1 4 4  . 
12 | 1 1 . .  . 
13 | 1 1 . .  . 
14 | 2 2 2 2  . 
15 | 2 2 2 2  . 
16 | . . . .  . 
17 | . . . .  . 
18 | . . . .  . 
19 | . . . .  . 
20 | . . . .  . 
21 | . . . .  . 
22 | . . . .  . 
23 | . . . .  . 
24 | . . . .  . 
25 | . . . .  . 
26 | . . . .  . 
27 | . . . .  . 

Boxes' corners:       (w,l)
    Box  1 is at 
        top left     (0,10)
        bottom right (1,13)

    Box  2 is at 
        top left     (0,14)
        bottom right (3,15)

    Box  3 is at 
        top left     (0,0)
        bottom right (3,1)

    Box  4 is at 
        top left     (2,8)
        bottom right (3,11)

    Box  5 is at 
        top left     (0,6)
        bottom right (1,9)

    Box  6 is at 
        top left     (0,2)
        bottom right (3,5)

    Box  7 is at 
        top left     (4,2)
        bottom right (4,2)

    Box  8 is at 
        top left     (4,10)
        bottom right (4,10)

    Box  9 is at 
        top left     (4,1)
        bottom right (4,1)

    Box 10 is at 
        top left     (4,8)
        bottom right (4,8)

    Roll length used: 16
In 45.19 seconds
